# Solution for model F-JSSP-SDST
# Objective value = 6720
B0(12) 0
B1(24) 0
B2(28) 1
B3(27) 0
B4(26) 1
B5(31) 0
B6(27) 0
B7(34) 0
B8(31) 1
B9(30) 0
B10(15) 1
B11(12) 1
B12(30) 0
B13(30) 0
B14(21) 1
B15(36) 0
B16(26) 0
B17(26) 1
B18(36) 1
B19(15) 0
B20(11) 0
B21(21) 1
B22(26) 1
B23(28) 0
B24(26) 0
B25(27) 0
B26(34) 1
B27(28) 0
B28(28) 1
B29(15) 0
B30(11) 1
B31(21) 0
B32(27) 1
B33(35) 0
B34(24) 1
B35(28) 0
B36(35) 0
B37(28) 1
B38(23) 0
B39(27) 0
B40(11) 1
B41(26) 0
B42(24) 0
B43(36) 1
B44(37) 0
B45(28) 1
B46(24) 0
B47(15) 1
B48(28) 0
B49(24) 0
B50(32) 0
B51(30) 1
B52(30) 1
B53(32) 0
B54(37) 0
B55(38) 1
B56(27) 0
B57(29) 0
B58(28) 0
B59(29) 1
B60(31) 0
B61(23) 1
B62(32) 1
B63(39) 0
B64(40) 1
B65(27) 0
B66(27) 0
B67(16) 0
B68(39) 1
B69(23) 0
B70(27) 1
B71(29) 1
B72(37) 0
B73(37) 0
B74(29) 0
B75(28) 1
B76(28) 0
B77(15) 1
B78(23) 1
B79(27) 0
B80(27) 0
B81(24) 1
B82(34) 1
B83(26) 0
B84(26) 0
B85(16) 1
B86(0) 0
B87(2) 0
B88(0) 0
B89(0) 0
B90(4) 1
B91(4) 1
B92(0) 0
B93(0) 0
B94(4) 0
B95(2) 0
B96(0) 0
B97(0) 0
B98(4) 0
B99(2) 0
B100(0) 0
B101(0) 0
B102(6) 0
B103(0) 0
B104(2) 0
B105(0) 0
B106(4) 0
B107(2) 0
B108(0) 0
B109(0) 0
B110(4) 0
B111(2) 0
B112(0) 0
B113(0) 0
B114(2) 0
B115(0) 0
B116(0) 0
B117(0) 0
B118(4) 1
B119(2) 0
B120(0) 0
B121(0) 0
B122(2) 1
B123(0) 0
B124(4) 0
B125(2) 0
B126(0) 0
B127(2) 0
B128(2) 0
B129(0) 0
B130(2) 1
B131(4) 1
B132(2) 0
B133(0) 0
B134(2) 0
B135(0) 0
B136(2) 0
B137(0) 0
B138(2) 0
B139(4) 0
B140(2) 0
B141(0) 0
B142(4) 1
B143(2) 0
B144(2) 0
B145(4) 0
B146(2) 0
B147(0) 0
B148(2) 0
B149(0) 0
B150(2) 1
B151(0) 0
B152(2) 0
B153(2) 0
B154(2) 0
B155(2) 0
B156(2) 0
B157(0) 0
B158(0) 0
B159(4) 1
B160(0) 0
B161(2) 0
B162(0) 0
B163(0) 0
B164(4) 0
B165(2) 0
B166(0) 0
B167(4) 1
B168(4) 0
B169(0) 0
B170(0) 0
B171(2) 0
B172(2) 0
B173(2) 0
B174(0) 0
B175(6) 1
B176(2) 0
B177(0) 0
B178(2) 0
B179(4) 0
B180(4) 0
B181(4) 0
B182(0) 0
B183(2) 1
B184(4) 0
B185(2) 0
B186(2) 1
B187(2) 1
B188(4) 0
B189(2) 0
B190(0) 0
B191(2) 1
B192(4) 0
B193(0) 0
B194(0) 0
B195(2) 1
B196(2) 1
B197(0) 0
B198(0) 0
B199(0) 0
B200(2) 0
B201(2) 0
B202(0) 0
B203(2) 0
B204(0) 0
B205(2) 0
B206(0) 0
B207(0) 0
B208(0) 0
B209(0) 0
B210(0) 0
B211(2) 0
B212(0) 0
B213(2) 1
B214(0) 0
B215(0) 0
B216(2) 0
B217(2) 1
B218(0) 0
B219(0) 0
B220(2) 0
B221(2) 0
B222(0) 0
B223(0) 0
B224(2) 0
B225(4) 0
B226(0) 0
B227(0) 0
B228(2) 1
B229(2) 0
B230(0) 0
B231(0) 0
B232(0) 0
B233(0) 0
B234(0) 0
B235(2) 0
B236(0) 0
B237(0) 0
B238(2) 1
B239(2) 0
B240(0) 0
B241(0) 0
B242(2) 1
B243(2) 0
B244(0) 0
B245(0) 0
B246(4) 1
B247(0) 0
B248(0) 0
B249(0) 0
B250(2) 0
B251(2) 1
B252(0) 0
B253(0) 0
B254(2) 0
B255(2) 0
B256(0) 0
B257(0) 0
B258(2) 1
B259(0) 0
B260(0) 0
B261(0) 0
B262(2) 1
B263(2) 0
B264(0) 0
B265(0) 0
B266(0) 0
B267(0) 0
B268(0) 0
B269(0) 0
B270(2) 1
B271(0) 0
B272(0) 0
B273(0) 0
B274(2) 1
B275(2) 0
B276(0) 0
B277(0) 0
B278(2) 0
B279(2) 0
B280(0) 0
B281(0) 0
B282(4) 0
B283(0) 0
B284(2) 1
B285(0) 0
B286(4) 1
B287(2) 0
B288(0) 0
B289(0) 0
B290(4) 0
B291(2) 0
B292(0) 0
B293(0) 0
B294(2) 0
B295(0) 0
B296(0) 0
B297(0) 0
B298(4) 1
B299(2) 0
B300(0) 0
B301(0) 0
B302(0) 0
B303(0) 0
B304(0) 0
B305(0) 0
B306(0) 0
B307(0) 0
B308(0) 0
B309(2) 1
B310(0) 0
B311(2) 1
B312(4) 1
B313(2) 1
B314(0) 0
B315(2) 0
B316(2) 1
B317(4) 0
B318(0) 0
B319(4) 1
B320(4) 0
B321(2) 0
B322(0) 0
B323(2) 0
B324(6) 1
B325(2) 1
B326(0) 0
B327(2) 1
B328(6) 0
B329(2) 1
B330(0) 0
B331(4) 0
B332(6) 0
B333(2) 0
B334(0) 0
B335(0) 0
B336(4) 0
B337(2) 1
B338(0) 0
B339(0) 0
B340(0) 0
B341(0) 0
B342(0) 0
B343(0) 0
B344(2) 0
B345(0) 0
B346(0) 0
B347(0) 0
B348(2) 1
B349(2) 0
B350(0) 0
B351(2) 1
B352(0) 0
B353(2) 0
B354(0) 0
B355(2) 1
B356(2) 0
B357(2) 1
B358(0) 0
B359(2) 1
B360(2) 1
B361(0) 0
B362(0) 0
B363(2) 1
B364(2) 0
B365(4) 0
B366(0) 0
B367(2) 1
B368(2) 1
B369(2) 0
B370(0) 0
B371(0) 0
B372(2) 1
B373(2) 0
B374(0) 0
B375(0) 0
B376(0) 0
B377(0) 0
B378(0) 0
B379(0) 0
B380(0) 0
B381(0) 0
B382(0) 0
B383(0) 0
B384(0) 0
B385(0) 0
B386(4) 0
B387(0) 0
B388(0) 0
B389(0) 0
B390(4) 0
B391(0) 0
B392(2) 0
B393(0) 0
B394(2) 1
B395(0) 0
B396(0) 0
B397(0) 0
B398(2) 0
B399(0) 0
B400(0) 0
B401(0) 0
B402(0) 0
B403(0) 0
B404(0) 0
B405(0) 0
B406(2) 0
B407(0) 0
B408(0) 0
B409(0) 0
B410(0) 0
B411(0) 0
B412(0) 0
B413(0) 0
B414(0) 0
B415(0) 0
B416(0) 0
B417(0) 0
B418(0) 0
B419(0) 0
B420(2) 0
B421(0) 0
B422(0) 0
B423(2) 0
B424(2) 0
B425(0) 0
B426(2) 0
B427(4) 0
B428(0) 0
B429(0) 0
B430(4) 0
B431(4) 0
B432(2) 0
B433(4) 0
B434(2) 0
B435(2) 0
B436(2) 0
B437(0) 0
B438(4) 1
B439(0) 0
B440(2) 0
B441(2) 0
B442(2) 0
B443(4) 0
B444(2) 0
B445(0) 0
B446(0) 0
B447(0) 0
B448(0) 0
B449(0) 0
B450(0) 0
B451(0) 0
B452(0) 0
B453(0) 0
B454(0) 0
B455(2) 1
B456(0) 0
B457(2) 0
B458(0) 0
B459(2) 0
B460(4) 0
B461(4) 0
B462(0) 0
B463(4) 1
B464(4) 1
B465(2) 0
B466(2) 0
B467(4) 0
B468(4) 0
B469(2) 0
B470(0) 0
B471(2) 1
B472(4) 0
B473(2) 0
B474(2) 0
B475(4) 1
B476(4) 0
B477(0) 0
B478(0) 0
B479(2) 0
B480(2) 0
B481(2) 0
B482(0) 0
B483(0) 0
B484(0) 0
B485(0) 0
B486(0) 0
B487(0) 0
B488(0) 0
B489(0) 0
B490(0) 0
B491(0) 0
B492(2) 1
B493(0) 0
B494(0) 0
B495(0) 0
B496(2) 0
B497(2) 0
B498(0) 0
B499(0) 0
B500(2) 1
B501(4) 0
B502(0) 0
B503(0) 0
B504(2) 0
B505(0) 0
B506(0) 0
B507(0) 0
B508(2) 0
B509(2) 0
B510(0) 0
B511(2) 0
B512(2) 0
B513(2) 0
B514(0) 0
B515(0) 0
B516(0) 0
B517(4) 1
B518(0) 0
B519(0) 0
B520(0) 0
B521(0) 0
B522(0) 0
B523(0) 0
B524(0) 0
B525(0) 0
B526(0) 0
B527(0) 0
B528(0) 0
B529(0) 0
B530(0) 0
B531(0) 0
B532(0) 0
B533(0) 0
B534(4) 1
B535(0) 0
B536(2) 0
B537(0) 0
B538(2) 1
B539(0) 0
B540(0) 0
B541(0) 0
B542(2) 1
B543(0) 0
B544(0) 0
B545(0) 0
B546(0) 0
B547(0) 0
B548(0) 0
B549(0) 0
B550(2) 1
B551(0) 0
B552(0) 0
B553(0) 0
B554(0) 0
B555(0) 0
B556(0) 0
B557(0) 0
B558(0) 0
B559(0) 0
B560(0) 0
B561(0) 0
B562(0) 0
B563(0) 0
B564(0) 0
B565(0) 0
B566(0) 0
B567(0) 0
B568(0) 0
B569(2) 0
B570(2) 0
B571(2) 1
B572(2) 0
B573(0) 0
B574(2) 0
B575(4) 0
B576(2) 1
B577(0) 0
B578(2) 1
B579(4) 0
B580(2) 0
B581(2) 0
B582(2) 1
B583(2) 0
B584(2) 0
B585(0) 0
B586(2) 1
B587(2) 0
B588(2) 0
B589(0) 0
B590(0) 0
B591(0) 0
B592(0) 0
B593(0) 0
B594(0) 0
B595(0) 0
B596(0) 0
B597(0) 0
B598(0) 0
B599(0) 0
B600(0) 0
B601(0) 0
B602(0) 0
B603(0) 0
B604(0) 0
B605(2) 1
B606(0) 0
B607(2) 0
B608(2) 1
B609(2) 0
B610(2) 1
B611(2) 1
B612(2) 0
B613(2) 0
B614(0) 0
B615(0) 0
B616(2) 0
B617(0) 0
B618(2) 1
B619(2) 1
B620(2) 0
B621(0) 0
B622(0) 0
B623(2) 1
B624(0) 0
B625(2) 0
B626(0) 0
B627(0) 0
B628(0) 0
B629(0) 0
B630(0) 0
B631(0) 0
B632(0) 0
B633(0) 0
B634(0) 0
B635(0) 0
B636(0) 0
B637(0) 0
B638(0) 0
B639(2) 1
B640(2) 0
B641(0) 0
B642(0) 0
B643(2) 0
B644(4) 1
B645(2) 1
B646(0) 0
B647(2) 1
B648(4) 0
B649(0) 0
B650(0) 0
B651(2) 1
B652(4) 1
B653(2) 0
B654(0) 0
B655(4) 1
B656(4) 1
B657(0) 0
B658(0) 0
B659(0) 0
B660(2) 0
B661(2) 0
B662(0) 0
B663(0) 0
B664(0) 0
B665(0) 0
B666(0) 0
B667(0) 0
B668(0) 0
B669(0) 0
B670(0) 0
B671(0) 0
B672(0) 0
B673(0) 0
B674(0) 0
B675(0) 0
B676(0) 0
B677(0) 0
B678(0) 0
B679(0) 0
B680(2) 0
B681(0) 0
B682(4) 0
B683(2) 0
B684(0) 0
B685(0) 0
B686(4) 1
B687(2) 0
B688(0) 0
B689(0) 0
B690(2) 0
B691(0) 0
B692(0) 0
B693(0) 0
B694(4) 1
B695(2) 0
B696(0) 0
B697(0) 0
B698(0) 0
B699(0) 0
B700(0) 0
B701(0) 0
B702(0) 0
B703(0) 0
B704(0) 0
B705(0) 0
B706(0) 0
B707(0) 0
B708(0) 0
B709(0) 0
B710(0) 0
B711(0) 0
B712(0) 0
B713(0) 0
B714(0) 0
B715(0) 0
B716(2) 0
B717(0) 0
B718(2) 1
B719(4) 0
B720(4) 0
B721(4) 0
B722(0) 0
B723(2) 1
B724(4) 0
B725(2) 0
B726(2) 1
B727(2) 0
B728(4) 0
B729(2) 0
B730(0) 0
B731(2) 0
B732(4) 0
B733(0) 0
B734(0) 0
B735(0) 0
B736(0) 0
B737(0) 0
B738(0) 0
B739(0) 0
B740(0) 0
B741(0) 0
B742(0) 0
B743(0) 0
B744(0) 0
B745(0) 0
B746(0) 0
B747(0) 0
B748(0) 0
B749(0) 0
B750(2) 1
B751(2) 1
B752(0) 0
B753(2) 0
B754(2) 1
B755(2) 0
B756(4) 0
B757(0) 0
B758(2) 1
B759(2) 0
B760(4) 0
B761(2) 0
B762(0) 0
B763(4) 0
B764(4) 0
B765(0) 0
B766(2) 1
B767(0) 0
B768(2) 0
B769(2) 0
B770(0) 0
B771(0) 0
B772(0) 0
B773(0) 0
B774(0) 0
B775(0) 0
B776(0) 0
B777(0) 0
B778(0) 0
B779(0) 0
B780(0) 0
B781(0) 0
B782(0) 0
B783(0) 0
B784(0) 0
B785(0) 0
B786(0) 0
B787(0) 0
B788(2) 1
B789(0) 0
B790(0) 0
B791(0) 0
B792(2) 0
B793(0) 0
B794(0) 0
B795(0) 0
B796(2) 0
B797(2) 0
B798(0) 0
B799(2) 0
B800(2) 0
B801(2) 0
B802(0) 0
B803(0) 0
B804(0) 0
B805(4) 0
B806(0) 0
B807(0) 0
B808(0) 0
B809(0) 0
B810(0) 0
B811(0) 0
B812(0) 0
B813(0) 0
B814(0) 0
B815(0) 0
B816(0) 0
B817(0) 0
B818(0) 0
B819(0) 0
B820(0) 0
B821(0) 0
B822(0) 0
B823(0) 0
B824(0) 0
B825(0) 0
B826(0) 0
B827(4) 0
B828(0) 0
B829(2) 0
B830(4) 0
B831(2) 0
B832(0) 0
B833(0) 0
B834(4) 1
B835(0) 0
B836(0) 0
B837(0) 0
B838(4) 0
B839(4) 0
B840(0) 0
B841(0) 0
B842(0) 0
B843(0) 0
B844(0) 0
B845(0) 0
B846(0) 0
B847(0) 0
B848(0) 0
B849(0) 0
B850(0) 0
B851(0) 0
B852(0) 0
B853(0) 0
B854(0) 0
B855(0) 0
B856(0) 0
B857(0) 0
B858(0) 0
B859(0) 0
B860(0) 0
B861(0) 0
B862(4) 1
B863(0) 0
B864(2) 0
B865(2) 0
B866(2) 1
B867(4) 0
B868(2) 0
B869(2) 0
B870(4) 0
B871(2) 0
B872(2) 0
B873(0) 0
B874(2) 1
B875(4) 0
B876(2) 0
B877(0) 0
B878(0) 0
B879(0) 0
B880(0) 0
B881(0) 0
B882(0) 0
B883(0) 0
B884(0) 0
B885(0) 0
B886(0) 0
B887(0) 0
B888(0) 0
B889(0) 0
B890(0) 0
B891(0) 0
B892(0) 0
B893(0) 0
B894(0) 0
B895(0) 0
B896(0) 0
B897(0) 0
B898(0) 0
B899(2) 1
B900(0) 0
B901(2) 0
B902(0) 0
B903(2) 1
B904(6) 0
B905(2) 0
B906(0) 0
B907(4) 0
B908(6) 0
B909(2) 0
B910(0) 0
B911(0) 0
B912(4) 0
B913(2) 0
B914(0) 0
B915(0) 0
B916(0) 0
B917(0) 0
B918(0) 0
B919(0) 0
B920(0) 0
B921(0) 0
B922(0) 0
B923(0) 0
B924(0) 0
B925(0) 0
B926(0) 0
B927(0) 0
B928(0) 0
B929(0) 0
B930(0) 0
B931(0) 0
B932(0) 0
B933(0) 0
B934(2) 1
B935(2) 1
B936(2) 1
B937(0) 0
B938(0) 0
B939(0) 0
B940(2) 0
B941(0) 0
B942(2) 0
B943(0) 0
B944(2) 0
B945(2) 0
B946(0) 0
B947(2) 0
B948(2) 0
B949(0) 0
B950(0) 0
B951(0) 0
B952(0) 0
B953(0) 0
B954(0) 0
B955(0) 0
B956(0) 0
B957(0) 0
B958(0) 0
B959(0) 0
B960(0) 0
B961(0) 0
B962(0) 0
B963(0) 0
B964(0) 0
B965(0) 0
B966(0) 0
B967(0) 0
B968(0) 0
B969(0) 0
B970(0) 0
B971(0) 0
B972(0) 0
B973(0) 0
B974(0) 0
B975(2) 0
B976(0) 0
B977(0) 0
B978(2) 1
B979(0) 0
B980(0) 0
B981(0) 0
B982(4) 1
B983(2) 0
B984(0) 0
B985(0) 0
B986(0) 0
B987(0) 0
B988(0) 0
B989(0) 0
B990(0) 0
B991(0) 0
B992(0) 0
B993(0) 0
B994(0) 0
B995(0) 0
B996(0) 0
B997(0) 0
B998(0) 0
B999(0) 0
B1000(0) 0
B1001(0) 0
B1002(0) 0
B1003(0) 0
B1004(0) 0
B1005(0) 0
B1006(0) 0
B1007(0) 0
B1008(0) 0
B1009(0) 0
B1010(2) 1
B1011(0) 0
B1012(2) 0
B1013(2) 0
B1014(2) 1
B1015(2) 0
B1016(2) 0
B1017(0) 0
B1018(2) 1
B1019(2) 1
B1020(2) 0
B1021(0) 0
B1022(0) 0
B1023(0) 0
B1024(0) 0
B1025(0) 0
B1026(0) 0
B1027(0) 0
B1028(0) 0
B1029(0) 0
B1030(0) 0
B1031(0) 0
B1032(0) 0
B1033(0) 0
B1034(0) 0
B1035(0) 0
B1036(0) 0
B1037(0) 0
B1038(0) 0
B1039(0) 0
B1040(0) 0
B1041(0) 0
B1042(0) 0
B1043(0) 0
B1044(0) 0
B1045(0) 0
B1046(0) 0
B1047(2) 1
B1048(0) 0
B1049(2) 0
B1050(0) 0
B1051(4) 0
B1052(6) 0
B1053(2) 0
B1054(0) 0
B1055(0) 0
B1056(4) 1
B1057(2) 0
B1058(0) 0
B1059(0) 0
B1060(0) 0
B1061(0) 0
B1062(0) 0
B1063(0) 0
B1064(0) 0
B1065(0) 0
B1066(0) 0
B1067(0) 0
B1068(0) 0
B1069(0) 0
B1070(0) 0
B1071(0) 0
B1072(0) 0
B1073(0) 0
B1074(0) 0
B1075(0) 0
B1076(0) 0
B1077(0) 0
B1078(0) 0
B1079(0) 0
B1080(0) 0
B1081(0) 0
B1082(0) 0
B1083(2) 1
B1084(2) 1
B1085(0) 0
B1086(0) 0
B1087(2) 0
B1088(2) 1
B1089(2) 0
B1090(0) 0
B1091(0) 0
B1092(2) 1
B1093(2) 0
B1094(0) 0
B1095(0) 0
B1096(0) 0
B1097(0) 0
B1098(0) 0
B1099(0) 0
B1100(0) 0
B1101(0) 0
B1102(0) 0
B1103(0) 0
B1104(0) 0
B1105(0) 0
B1106(0) 0
B1107(0) 0
B1108(0) 0
B1109(0) 0
B1110(0) 0
B1111(0) 0
B1112(0) 0
B1113(0) 0
B1114(0) 0
B1115(0) 0
B1116(0) 0
B1117(0) 0
B1118(0) 0
B1119(0) 0
B1120(0) 0
B1121(0) 0
B1122(0) 0
B1123(0) 0
B1124(0) 0
B1125(0) 0
B1126(2) 1
B1127(4) 0
B1128(0) 0
B1129(0) 0
B1130(0) 0
B1131(0) 0
B1132(0) 0
B1133(0) 0
B1134(0) 0
B1135(0) 0
B1136(0) 0
B1137(0) 0
B1138(0) 0
B1139(0) 0
B1140(0) 0
B1141(0) 0
B1142(0) 0
B1143(0) 0
B1144(0) 0
B1145(0) 0
B1146(0) 0
B1147(0) 0
B1148(0) 0
B1149(0) 0
B1150(0) 0
B1151(0) 0
B1152(0) 0
B1153(0) 0
B1154(0) 0
B1155(0) 0
B1156(0) 0
B1157(0) 0
B1158(0) 0
B1159(0) 0
B1160(4) 0
B1161(0) 0
B1162(0) 0
B1163(0) 0
B1164(2) 1
B1165(2) 0
B1166(0) 0
B1167(0) 0
B1168(0) 0
B1169(0) 0
B1170(0) 0
B1171(0) 0
B1172(0) 0
B1173(0) 0
B1174(0) 0
B1175(0) 0
B1176(0) 0
B1177(0) 0
B1178(0) 0
B1179(0) 0
B1180(0) 0
B1181(0) 0
B1182(0) 0
B1183(0) 0
B1184(0) 0
B1185(0) 0
B1186(0) 0
B1187(0) 0
B1188(0) 0
B1189(0) 0
B1190(0) 0
B1191(0) 0
B1192(0) 0
B1193(0) 0
B1194(0) 0
B1195(4) 1
B1196(0) 0
B1197(2) 0
B1198(0) 0
B1199(0) 0
B1200(4) 1
B1201(2) 0
B1202(0) 0
B1203(0) 0
B1204(0) 0
B1205(0) 0
B1206(0) 0
B1207(0) 0
B1208(0) 0
B1209(0) 0
B1210(0) 0
B1211(0) 0
B1212(0) 0
B1213(0) 0
B1214(0) 0
B1215(0) 0
B1216(0) 0
B1217(0) 0
B1218(0) 0
B1219(0) 0
B1220(0) 0
B1221(0) 0
B1222(0) 0
B1223(0) 0
B1224(0) 0
B1225(0) 0
B1226(0) 0
B1227(0) 0
B1228(0) 0
B1229(0) 0
B1230(0) 0
B1231(0) 0
B1232(2) 1
B1233(0) 0
B1234(0) 0
B1235(0) 0
B1236(2) 0
B1237(2) 1
B1238(0) 0
B1239(0) 0
B1240(0) 0
B1241(0) 0
B1242(0) 0
B1243(0) 0
B1244(0) 0
B1245(0) 0
B1246(0) 0
B1247(0) 0
B1248(0) 0
B1249(0) 0
B1250(0) 0
B1251(0) 0
B1252(0) 0
B1253(0) 0
B1254(0) 0
B1255(0) 0
B1256(0) 0
B1257(0) 0
B1258(0) 0
B1259(0) 0
B1260(0) 0
B1261(0) 0
B1262(0) 0
B1263(0) 0
B1264(0) 0
B1265(0) 0
B1266(0) 0
B1267(0) 0
B1268(0) 0
B1269(0) 0
B1270(0) 0
B1271(0) 0
B1272(0) 0
B1273(0) 0
B1274(0) 0
B1275(0) 0
B1276(0) 0
B1277(0) 0
B1278(0) 0
B1279(0) 0
B1280(0) 0
B1281(0) 0
B1282(0) 0
B1283(0) 0
B1284(0) 0
B1285(0) 0
B1286(0) 0
B1287(0) 0
B1288(0) 0
B1289(0) 0
B1290(0) 0
B1291(0) 0
B1292(0) 0
B1293(0) 0
B1294(0) 0
B1295(0) 0
B1296(0) 0
B1297(0) 0
B1298(0) 0
B1299(0) 0
B1300(0) 0
B1301(0) 0
B1302(0) 0
B1303(0) 0
B1304(0) 0
B1305(0) 0
B1306(0) 0
B1307(0) 0
B1308(0) 0
B1309(0) 0
B1310(0) 0
B1311(0) 0
B1312(0) 0
B1313(0) 0
B1314(0) 0
B1315(0) 0
B1316(0) 0
B1317(0) 0
B1318(0) 0
B1319(0) 0
B1320(0) 0
B1321(0) 0
B1322(0) 0
B1323(0) 0
B1324(0) 0
B1325(0) 0
B1326(0) 0
B1327(0) 0
B1328(0) 0
B1329(0) 0
B1330(0) 0
B1331(0) 0
B1332(0) 0
B1333(0) 0
B1334(0) 0
B1335(0) 0
B1336(0) 0
B1337(0) 0
B1338(0) 0
B1339(0) 0
B1340(0) 0
B1341(0) 0
B1342(0) 0
B1343(0) 0
B1344(0) 0
B1345(0) 0
B1346(0) 0
B1347(0) 0
B1348(0) 0
B1349(0) 0
B1350(0) 0
B1351(0) 0
B1352(0) 0
B1353(0) 0
B1354(0) 0
B1355(0) 0
B1356(0) 0
B1357(0) 0
B1358(0) 0
B1359(0) 0
B1360(0) 0
B1361(0) 0
B1362(0) 0
B1363(0) 0
B1364(0) 0
B1365(0) 0
B1366(0) 0
B1367(0) 0
B1368(0) 0
B1369(0) 0
B1370(0) 0
B1371(0) 0
B1372(0) 0
B1373(0) 0
B1374(0) 0
B1375(0) 0
B1376(0) 0
B1377(0) 0
B1378(0) 0
B1379(0) 0
B1380(0) 0
B1381(0) 0
I1382(13) 0
I1383(25) 0
I1384(29) 0
I1385(30) 0
I1386(28) 100
I1387(34) 0
I1388(30) 0
I1389(38) 0
I1390(34) 230
I1391(32) 0
I1392(18) 443
I1393(13) 244
I1394(31) 0
I1395(32) 0
I1396(24) 458
I1397(38) 0
I1398(28) 0
I1399(28) 524
I1400(38) 674
I1401(18) 0
I1402(12) 0
I1403(22) 0
I1404(28) 62
I1405(30) 0
I1406(28) 0
I1407(29) 0
I1408(37) 207
I1409(31) 0
I1410(30) 307
I1411(18) 0
I1412(12) 142
I1413(22) 0
I1414(29) 387
I1415(37) 0
I1416(26) 637
I1417(30) 0
I1418(38) 0
I1419(30) 782
I1420(24) 0
I1421(28) 0
I1422(12) 0
I1423(28) 0
I1424(26) 0
I1425(38) 128
I1426(39) 0
I1427(31) 175
I1428(27) 0
I1429(18) 260
I1430(30) 0
I1431(24) 0
I1432(32) 0
I1433(30) 11
I1434(32) 179
I1435(34) 0
I1436(40) 0
I1437(39) 329
I1438(29) 0
I1439(31) 0
I1440(30) 0
I1441(30) 449
I1442(31) 0
I1443(23) 539
I1444(33) 696
I1445(41) 0
I1446(41) 820
I1447(29) 0
I1448(29) 0
I1449(18) 0
I1450(40) 980
I1451(24) 0
I1452(28) 114
I1453(31) 488
I1454(39) 0
I1455(40) 0
I1456(32) 0
I1457(32) 712
I1458(30) 0
I1459(18) 890
I1460(23) 245
I1461(27) 0
I1462(28) 0
I1463(26) 395
I1464(35) 615
I1465(27) 0
I1466(27) 0
I1467(17) 655
I1468(1) 6720
